p cnf 37 42
-1 32 0 
-2 -3 32 0 
-4 32 0 
-5 -6 -7 32 0 
-8 32 0 
-7 33 0 
-9 25 34 0 
-9 25 33 0 
-7 34 0 
-10 34 0 
-10 33 0 
-11 32 0 
-12 32 0 
-13 -14 21 29 -15 -16 -17 28 35 0 
-18 36 0 
-19 37 0 
-7 32 0 
-10 32 0 
-20 32 0 
-21 14 29 32 0 
-9 25 32 0 
-22 32 0 
-10 -9 25 33 0 
-21 14 29 33 0 
-20 34 0 
-21 14 29 34 0 
-23 -9 25 33 0 
-23 -20 33 0 
-24 33 0 
-4 33 0 
-4 34 0 
-24 34 0 
-24 32 0 
-25 9 33 0 
-26 34 0 
-19 -6 -27 33 0 
-27 34 0 
-28 17 33 0 
-29 14 21 -30 35 0 
-28 17 32 0 
-7 -31 34 0 
-20 33 0 
